
Gurobi 10.0.3 (linux64, gurobi_cl) logging started Thu Nov  2 11:40:38 2023

Set parameter Username
Set parameter TimeLimit to value 3600
Set parameter LogFile to value "RCPSP_857.log"
Set parameter Threads to value 32
Academic license - for non-commercial use only - expires 2024-10-30
Using license file /home/jrivera6/gurobi-licenses/v1003/compute-0-35/gurobi.lic

Gurobi Optimizer version 10.0.3 build v10.0.3rc0 (linux64)
Copyright (c) 2023, Gurobi Optimization, LLC

Read MPS format model from file RCPSP_857.mps
Reading time = 0.04 seconds
RCPSP_857: 19662 rows, 7750 columns, 64677 nonzeros

CPU model: Intel(R) Xeon(R) Gold 6130 CPU @ 2.10GHz, instruction set [SSE2|AVX|AVX2|AVX512]
Thread count: 32 physical cores, 32 logical processors, using up to 32 threads

Optimize a model with 19662 rows, 7750 columns and 64677 nonzeros
Model fingerprint: 0x06348d9c
Variable types: 62 continuous, 7688 integer (7688 binary)
Coefficient statistics:
  Matrix range     [1e+00, 3e+02]
  Objective range  [1e+00, 1e+00]
  Bounds range     [1e+00, 1e+00]
  RHS range        [1e+00, 4e+02]
Presolve removed 8261 rows and 3093 columns
Presolve time: 3.95s
Presolved: 11401 rows, 4657 columns, 38685 nonzeros
Variable types: 61 continuous, 4596 integer (4596 binary)

Root relaxation: objective 7.400000e+01, 1471 iterations, 0.03 seconds (0.01 work units)

    Nodes    |    Current Node    |     Objective Bounds      |     Work
 Expl Unexpl |  Obj  Depth IntInf | Incumbent    BestBd   Gap | It/Node Time

     0     0   74.00000    0   16          -   74.00000      -     -    4s
     0     0   74.00000    0   99          -   74.00000      -     -    7s
     0     0   74.00000    0   90          -   74.00000      -     -    7s
     0     0   74.00000    0   10          -   74.00000      -     -    8s
     0     0   74.00000    0   10          -   74.00000      -     -    8s
     0     0   74.00000    0    6          -   74.00000      -     -    9s
     0     0   74.00000    0   10          -   74.00000      -     -    9s
     0     0   74.00000    0   56          -   74.00000      -     -   10s
     0     0   74.00000    0    8          -   74.00000      -     -   10s
     0     0   74.00000    0   24          -   74.00000      -     -   11s
H    0     0                      74.0000000   74.00000  0.00%     -   11s
     0     0   74.00000    0    2   74.00000   74.00000  0.00%     -   11s

Cutting planes:
  Gomory: 2
  Cover: 6
  Implied bound: 27
  MIR: 94
  Mod-K: 1
  RLT: 81
  Relax-and-lift: 31

Explored 1 nodes (9524 simplex iterations) in 11.52 seconds (3.93 work units)
Thread count was 32 (of 32 available processors)

Solution count 1: 74 

Optimal solution found (tolerance 1.00e-04)
Best objective 7.400000000000e+01, best bound 7.400000000000e+01, gap 0.0000%

Wrote result file 'RCPSP_857.sol'

